(set-info :smt-lib-version 2.6)
(set-logic ABV)
(set-info :source |
Generated by the tool Ultimate Automizer [1,2] which implements
an automata theoretic approach [3] to software verification.

This SMT script belongs to a set of SMT scripts that was generated by
applying Ultimate Automizer to benchmarks [4] from the SV-COMP 2023 [5,6].
This script may not contain all SMT commands that Ultimate Automizer
issued. In order to meet the restrictions for SMT-COMP benchmarks 
we dropped the commands for getting values (resp. models), 
unsatisfiable cores, and interpolants.

2023-03-21, Matthias Heizmann (heizmann@informatik.uni-freiburg.de)

[1] https://ultimate.informatik.uni-freiburg.de/automizer/
[2] Matthias Heizmann, Max Barth, Daniel Dietsch, Leonard Fichtner,
     Jochen Hoenicke, Dominik Klumpp, Mehdi Naouar, Tanja Schindler,
     Frank Schüssele, Andreas Podelski: Ultimate Automizer and the
     CommuHash Normal Form (Competition Contribution). TACAS 2023
[3] Matthias Heizmann, Jochen Hoenicke, Andreas Podelski: Software Model
     Checking for People Who Love Automata. CAV 2013
[4] https://github.com/sosy-lab/sv-benchmarks
[5] Dirk Beyer: Competition on Software Verification and
     Witness Validation: SV-COMP 2023.  TACAS 2023
[6] https://sv-comp.sosy-lab.org/2023/
|)
(set-info :license "https://creativecommons.org/licenses/by/4.0/")
(set-info :category "industrial")
(set-info :status unknown)
(declare-fun |c_~#pp~0.base| () (_ BitVec 64))
(declare-fun |c_~#pstate~0.base| () (_ BitVec 64))
(declare-fun |c_~#pstate~0.offset| () (_ BitVec 64))
(declare-fun |c_old(#memory_int)| () (Array (_ BitVec 64) (Array (_ BitVec 64) (_ BitVec 32))))
(declare-fun |c_#memory_int| () (Array (_ BitVec 64) (Array (_ BitVec 64) (_ BitVec 32))))
(declare-fun |c_g_#t~mem9#1| () (_ BitVec 32))
(declare-fun |c_g_~i~2#1| () (_ BitVec 32))
(assert (= |c_g_#t~mem9#1| (_ bv1 32)))
(assert (and (= |c_#memory_int| |c_old(#memory_int)|) (= |c_g_#t~mem9#1| (_ bv1 32)) (= (select (select |c_#memory_int| (_ bv5 64)) (bvmul ((_ sign_extend 32) (_ bv0 32)) (_ bv4 64))) (_ bv1 32)) (= |c_~#pstate~0.base| (_ bv5 64)) (= |c_~#pp~0.base| (_ bv4 64)) (= (_ bv0 64) |c_~#pstate~0.offset|) (= |c_g_~i~2#1| (_ bv0 32))))
(assert (not (and (= |c_~#pp~0.base| (_ bv4 64)) (exists ((v_ArrVal_335 (Array (_ BitVec 64) (_ BitVec 32))) (v_ArrVal_334 (_ BitVec 32))) (= |c_#memory_int| (store (store |c_old(#memory_int)| (_ bv4 64) v_ArrVal_335) (_ bv5 64) (store (select |c_old(#memory_int)| (_ bv5 64)) (bvmul ((_ sign_extend 32) (_ bv1 32)) (_ bv4 64)) v_ArrVal_334)))) (= (_ bv0 64) |c_~#pstate~0.offset|) (= |c_~#pstate~0.base| (_ bv5 64)))))
(check-sat)
(exit)
